c "516588.clq"
p edge 138 536
e 1 5
e 1 7
e 1 10
e 1 14
e 1 17
e 1 28
e 1 34
e 1 44
e 1 61
e 1 75
e 2 5
e 2 6
e 2 7
e 2 8
e 2 11
e 2 12
e 2 22
e 2 24
e 2 31
e 2 47
e 2 103
e 2 126
e 3 5
e 3 6
e 3 17
e 3 23
e 3 25
e 3 28
e 3 29
e 3 30
e 3 31
e 3 56
e 3 60
e 3 64
e 3 70
e 3 73
e 3 78
e 3 81
e 3 84
e 3 107
e 3 108
e 3 109
e 3 113
e 3 116
e 3 119
e 3 125
e 3 126
e 3 132
e 4 5
e 4 6
e 4 9
e 4 10
e 4 12
e 4 18
e 4 21
e 4 24
e 4 34
e 4 55
e 4 68
e 4 71
e 4 88
e 4 90
e 4 95
e 4 127
e 5 6
e 5 7
e 5 8
e 5 9
e 5 11
e 5 13
e 5 15
e 5 16
e 5 19
e 5 23
e 5 26
e 5 31
e 5 37
e 5 43
e 5 50
e 5 56
e 5 64
e 5 81
e 5 86
e 5 97
e 5 102
e 5 103
e 5 109
e 5 113
e 5 119
e 5 128
e 6 7
e 6 8
e 6 11
e 6 13
e 6 18
e 6 26
e 6 27
e 6 30
e 6 32
e 6 36
e 6 40
e 6 43
e 6 47
e 6 51
e 6 52
e 6 66
e 6 69
e 6 78
e 6 89
e 6 100
e 6 104
e 6 105
e 6 113
e 6 115
e 6 128
e 6 131
e 7 8
e 7 9
e 7 14
e 7 17
e 7 18
e 7 20
e 7 23
e 7 24
e 7 33
e 7 35
e 7 38
e 7 53
e 7 54
e 7 59
e 7 60
e 7 62
e 7 63
e 7 93
e 7 106
e 7 137
e 8 9
e 8 10
e 8 11
e 8 13
e 8 14
e 8 15
e 8 29
e 8 41
e 8 50
e 8 53
e 8 57
e 8 70
e 8 72
e 8 75
e 8 76
e 8 77
e 8 92
e 8 123
e 8 125
e 8 129
e 9 10
e 9 12
e 9 15
e 9 16
e 9 26
e 9 28
e 9 29
e 9 36
e 9 38
e 9 42
e 9 43
e 9 44
e 9 50
e 9 51
e 9 52
e 9 53
e 9 63
e 9 74
e 9 77
e 9 80
e 9 96
e 9 120
e 9 123
e 9 134
e 9 137
e 10 12
e 10 13
e 10 39
e 10 40
e 10 73
e 10 120
e 11 21
e 11 22
e 11 25
e 11 33
e 11 35
e 11 38
e 11 41
e 11 46
e 11 52
e 11 67
e 11 82
e 11 84
e 11 89
e 11 100
e 11 101
e 11 116
e 11 124
e 11 130
e 11 133
e 12 15
e 12 16
e 12 19
e 12 21
e 12 30
e 12 37
e 12 45
e 12 46
e 12 49
e 12 61
e 12 132
e 13 14
e 13 18
e 13 19
e 13 20
e 13 26
e 13 32
e 13 34
e 13 37
e 13 41
e 13 43
e 13 45
e 13 49
e 13 52
e 13 55
e 13 62
e 13 63
e 13 66
e 13 67
e 13 69
e 13 70
e 13 76
e 13 82
e 13 83
e 13 85
e 13 93
e 13 97
e 13 102
e 13 124
e 13 125
e 13 128
e 14 22
e 14 39
e 14 41
e 14 91
e 14 102
e 14 118
e 14 122
e 14 134
e 15 16
e 15 19
e 15 20
e 15 27
e 15 29
e 15 33
e 15 40
e 15 48
e 15 51
e 15 62
e 15 66
e 15 78
e 15 92
e 15 136
e 16 17
e 16 28
e 16 30
e 16 32
e 16 44
e 16 54
e 16 69
e 16 71
e 16 74
e 16 97
e 16 99
e 16 122
e 16 135
e 17 21
e 17 22
e 17 63
e 17 67
e 17 73
e 17 79
e 17 80
e 17 132
e 18 23
e 18 33
e 18 54
e 18 71
e 18 108
e 18 122
e 19 20
e 19 24
e 19 27
e 19 48
e 19 57
e 19 59
e 19 68
e 19 72
e 19 79
e 19 81
e 19 85
e 19 90
e 20 44
e 20 112
e 21 31
e 21 42
e 21 50
e 21 76
e 21 90
e 21 96
e 21 119
e 21 120
e 22 25
e 22 27
e 22 38
e 22 93
e 23 25
e 23 35
e 23 36
e 23 42
e 23 49
e 23 58
e 23 60
e 23 68
e 23 69
e 23 77
e 23 86
e 23 94
e 23 96
e 23 106
e 23 110
e 23 118
e 23 135
e 24 39
e 24 57
e 24 114
e 24 131
e 25 36
e 25 49
e 25 65
e 25 74
e 25 99
e 25 130
e 26 39
e 27 40
e 27 45
e 27 46
e 27 55
e 27 58
e 27 64
e 27 67
e 27 72
e 27 79
e 27 107
e 27 109
e 27 112
e 27 127
e 29 32
e 29 34
e 29 45
e 29 62
e 29 87
e 29 89
e 29 103
e 29 110
e 29 116
e 30 77
e 30 112
e 30 124
e 31 51
e 31 97
e 31 98
e 31 116
e 31 121
e 33 35
e 33 72
e 33 75
e 33 82
e 33 83
e 33 124
e 33 129
e 34 55
e 34 56
e 35 121
e 36 37
e 36 68
e 36 84
e 36 86
e 36 89
e 36 92
e 37 46
e 37 88
e 37 95
e 37 101
e 37 105
e 37 122
e 38 42
e 38 65
e 39 59
e 39 61
e 40 79
e 40 98
e 40 135
e 41 96
e 41 108
e 41 118
e 42 48
e 42 93
e 43 54
e 43 57
e 43 58
e 43 85
e 43 91
e 43 113
e 43 136
e 43 138
e 44 59
e 44 92
e 44 114
e 45 47
e 45 48
e 45 58
e 45 61
e 45 107
e 45 131
e 46 47
e 46 87
e 46 117
e 47 80
e 47 94
e 47 117
e 49 60
e 49 83
e 49 88
e 49 98
e 49 105
e 49 106
e 50 91
e 51 56
e 51 104
e 51 111
e 51 138
e 52 53
e 52 65
e 52 76
e 52 103
e 53 136
e 54 83
e 54 98
e 56 95
e 56 108
e 56 115
e 57 100
e 58 73
e 58 126
e 59 78
e 59 88
e 60 71
e 61 84
e 62 70
e 63 64
e 63 65
e 63 85
e 63 87
e 63 101
e 63 134
e 64 66
e 64 74
e 65 133
e 66 75
e 66 80
e 68 104
e 68 105
e 68 133
e 69 99
e 69 111
e 70 87
e 70 90
e 72 86
e 72 91
e 72 131
e 74 130
e 75 81
e 75 99
e 75 126
e 77 107
e 77 128
e 78 94
e 78 101
e 78 121
e 80 102
e 80 117
e 81 82
e 81 112
e 82 138
e 83 104
e 83 125
e 83 132
e 85 137
e 86 120
e 87 100
e 88 106
e 88 111
e 89 95
e 90 94
e 91 121
e 93 110
e 96 114
e 96 119
e 97 123
e 98 114
e 99 137
e 100 130
e 102 109
e 102 115
e 102 123
e 103 110
e 103 115
e 103 118
e 104 111
e 107 117
e 109 129
e 111 135
e 116 127
e 121 129
e 123 127
e 126 134
e 128 133
e 129 136
e 131 138
